93 17 65 40 61 42 45 79 24 41 57 66 64 20 22 34 76 12 87 47 44 63 37 33 90 53 95 29 74 9 18 96 85 26 8 54 73 38 82 56 83 81 13 55 62 70 15 94 71 49 60 4 7 51 32 86 91 43 39 25 59 97 5 31 72 98 99 89 6 35 16 78 75 58 19 36 10 14 50 80 23 27 48 30 2 0 69 21 46 84 28 52 67 1 77 3 92 11 68 88 

